CMD:
./solvers/bin/cadical --plain --no-reduce -t 1600 ./data/cnfs//6s325rb072/6s325rb072.47.cnf

c --- [ banner ] -------------------------------------------------------------
c 
c CaDiCaL SAT Solver
c Copyright (c) 2016-2024
c A. Biere, M. Fleury, N. Froleyks, K. Fazekas, F. Pollitt, T. Faller
c JKU Linz, University of Freiburg, TU Wien
c 
c Version 2.1.3 5296d3d2a9bf48c154ab2acb5e44625776d821bf
c g++ (Gentoo 12.3.1_p20230526 p2) 12.3.1 20230526 -Wall -Wextra -O3 -DNDEBUG
c Sat Aug 9 07:26:21 PDT 2025 Linux cedar2.int.cedar.computecanada.ca 5.14.0-362.24.2.el9_3.x86_64 x86_64
c 
c --- [ limit ] --------------------------------------------------------------
c 
c setting time limit to 1600 seconds real time (due to '-t 1600')
c 
c --- [ parsing input ] ------------------------------------------------------
c 
c reading DIMACS file from './data/cnfs//6s325rb072/6s325rb072.47.cnf'
c opening file to read './data/cnfs//6s325rb072/6s325rb072.47.cnf'
c found 'p cnf 565491 1528492' header
c parsed 1528492 clauses in 0.26 seconds process time
c 
c --- [ options ] ------------------------------------------------------------
c 
c   --compact=false                (different from default 'true')
c   --decompose=false              (different from default 'true')
c   --deduplicate=false            (different from default 'true')
c   --elim=false                   (different from default 'true')
c   --probe=false                  (different from default 'true')
c   --reduce=false                 (different from default 'true')
c   --subsume=false                (different from default 'true')
c   --ternary=false                (different from default 'true')
c   --transred=false               (different from default 'true')
c   --vivify=false                 (different from default 'true')
c 
c --- [ solving ] ------------------------------------------------------------
c 
c time measured in process time since initialization
c 
c  seconds   reductions  redundant   irredundant
c          MB    restarts       trail        variables
c           level   conflicts       glue           remaining
c 
c *  0.26 242  0 0   0    0    0  0% 0 1500279 539466 95%
c {  0.46 249  0 0   0    0    0  0% 0 1500279 539466 95%
c i  0.52 249 615 0   0  217    7  6% 1 1500279 539464 95%
c i  0.52 249 568 0   0  218    7  6% 1 1500279 539460 95%
c i  0.52 249 497 0   0  220    7  6% 1 1500279 539458 95%
c i  0.52 249 469 0   0  221    7  6% 1 1500279 539454 95%
c i  0.52 249 425 0   0  223    7  6% 1 1500279 539451 95%
c i  0.53 249 407 0   0  224    7  6% 1 1500279 539450 95%
c i  0.53 249 392 0   0  225    7  6% 1 1500279 539446 95%
c i  0.53 249 365 0   0  227    7  6% 1 1500279 539444 95%
c i  0.53 249 354 0   0  228    7  6% 0 1500279 539442 95%
c i  0.53 249 343 0   0  229    7  6% 0 1500279 539441 95%
c i  0.53 249 334 0   0  230    7  6% 0 1500279 539437 95%
c i  0.56 249 193 0   0  271   47  6% 13 1500279 539436 95%
c i  0.59 250 165 0   0  319   93  7% 8 1500279 539434 95%
c i  0.59 250 169 0   0  322   95  7% 7 1500279 539433 95%
c i  0.61 250 186 0   0  344  114  8% 7 1500279 539431 95%
c i  0.61 250 186 0   0  345  114  8% 7 1500279 539430 95%
c i  0.83 251 175 0   0  575  336 15% 3 1500279 539425 95%
c i  0.84 251 172 0   0  584  344 15% 3 1500279 539424 95%
c 
c  seconds    reductions  redundant   irredundant
c          MB     restarts       trail        variables
c            level   conflicts       glue           remaining
c 
c i  0.84 251 172 0   0  585  344 15% 3 1500279 539420 95%
c i  0.84 251 172 0   0  586  344 15% 3 1500279 539419 95%
c i  0.85 251 173 0   0  599  354 15% 3 1500279 539417 95%
c }  1.13 253 140 0  12 1005  724 32% 4 1500279 539417 95%
c [  1.13 253  0 0  12 1005  724  0% 0 1500279 539417 95%
c O  1.24 253 11384 0  12 1006  725 97% 4 1500279 539417 95%
c ]  3.69 254 9224 0  13 3005 2460 62% 5 1500279 539417 95%
c {  3.69 254 140 0  13 3005 2460 32% 4 1500279 539417 95%
c F  3.70 254 160 0  13 3008 2463 32% 4 1500279 539417 95%
c i  4.80 255 75 0 131 4535 3814 22% 3 1500279 539416 95%
c i  5.06 255 71 0 155 4725 3986 22% 4 1500279 535001 95%
c i  5.10 255 68 0 170 4851 4096 22% 4 1500279 535000 95%
c i  5.13 255 67 0 176 4890 4128 22% 4 1500279 534049 94%
c i  5.26 255 61 0 188 5238 4423 21% 4 1500279 533574 94%
c i  5.27 255 60 0 189 5302 4463 20% 4 1500279 533571 94%
c i  5.31 255 60 0 189 5341 4485 20% 4 1500279 439912 78%
c }  5.31 255 60 0 189 5344 4486 20% 4 1500279 376804 67%
c 0  5.31 255 60 0 189 5344 4486 20% 4 1500279 376804 67%
c 
c --- [ result ] -------------------------------------------------------------
c 
s UNSATISFIABLE
c 
c --- [ run-time profiling ] -------------------------------------------------
c 
c process time taken by individual solving procedures
c (percentage relative to process time for solving)
c 
c         5.05  100.00% search
c         2.56   50.74% stable
c         2.30   45.43% unstable
c         0.26    5.17% parse
c         0.19    3.83% lucky
c         0.00    0.00% simplify
c   =================================
c         5.05   95.07% solve
c 
c last line shows process time for solving
c (percentage relative to total process time)
c 
c --- [ statistics ] ---------------------------------------------------------
c 
c chronological:              1932        36.15 %  of conflicts
c conflicts:                  5344      1057.66    per second
c decisions:                 37100      7342.65    per second
c fixed:                    181656        32.12 %  of all variables
c learned:                    4905        91.79 %  per conflict
c learned_lits:              60507       100.00 %  learned literals
c minimized:                     0         0.00 %  learned literals
c shrunken:                   7419        12.26 %  learned literals
c minishrunken:               8054        13.31 %  learned literals
c otfs:                        200         3.74 %  of conflict
c propagations:           71654685        14.18 M  per second
c rephased:                      2      2672.00    interval
c restarts:                    189        28.28    interval
c stabilizing:                   1        37.24 %  of conflicts
c subsumed:                    398         0.03 %  of all clauses
c strengthened:                187         0.01 %  of all clauses
c 
c seconds are measured in process time for solving
c 
c --- [ resources ] ----------------------------------------------------------
c 
c total process time since initialization:         5.31    seconds
c total real time since initialization:            5.34    seconds
c maximum resident set size of process:          253.47    MB
c 
c --- [ shutting down ] ------------------------------------------------------
c 
c exit 20
